904403
11 35 5412
35 2 10541
2 16 57771
16 3 71701
3 14 30026
14 17 42391
17 15 45489
15 8 26227
8 9 54349
9 6 47658
6 36 22446
36 7 11794
7 29 22890
29 38 745
38 23 7449
23 13 20028
13 28 6411
28 31 12751
31 25 7859
25 34 30137
34 12 39715
12 33 3967
33 26 15458
26 39 17497
39 37 6534
37 30 941
30 20 17244
20 32 24202
32 5 3290
5 24 63665
24 22 45980
22 4 23621
4 19 26533
19 40 13572
40 27 17541
27 18 12606
18 21 18931
21 1 6578
1 10 6947
10 11 5506
